p cnf 12 41
12 9 -7 0
12 -9 -5 0
-12 -9 -5 0
-12 9 -5 0
12 9 -4 0
-12 8 6 0
-12 -8 4 0
12 8 -4 0
-12 7 3 0
12 6 -5 0
-12 -2 -1 0
12 2 1 0
-11 9 5 0
11 -9 -5 0
-11 -7 6 0
-11 7 -3 0
11 -5 1 0
11 3 -2 0
-10 -9 -7 0
-10 7 -3 0
10 -5 2 0
10 5 1 0
-10 4 2 0
10 -3 1 0
9 -8 -1 0
9 8 -1 0
-9 5 -4 0
9 -4 -2 0
-8 6 -5 0
-8 -5 -4 0
-8 4 3 0
-7 -6 5 0
7 -4 -2 0
-7 -4 1 0
6 5 -3 0
-6 -5 1 0
-5 -3 -2 0
5 3 1 0
-4 2 -1 0
-4 -2 1 0
3 2 -1 0
